 NOTE: Siesta V5 introduces some new defaults for basis-set generation
 NOTE: which might lead to slightly different numerical results.
 NOTE: Please see the manual for full details and compatibility measures.

reinit: Reading from file optimization.fdf

reinit: -----------------------------------------------------------------------
reinit: System Name:
reinit: -----------------------------------------------------------------------
reinit: System Label: SurRel
reinit: -----------------------------------------------------------------------

initatom: Reading input for the pseudopotentials and atomic orbitals ----------
Species number:   1 Atomic number:   79 Label: Au

Ground state valence configuration (from tables):   6s01  6p00  5d10  5f00

---- Processing specs for species: Au
Reading pseudopotential information in PSML from:
  Au.psml
PSML file version: 1.1
GGA--PBE XC_GGA_X_PBE--XC_GGA_C_PBE pb
PSML uuid: fa497b30-be45-11e7-41fb-494093d7a025
Semicore shell(s) with  8 electrons included in the valence for Au

---- Pseudopotential check for Au

Pseudized shells:
5s( 2.00) rc: 1.46
5p( 6.00) rc: 1.56
5d(10.00) rc: 1.56
5f( 0.00) rc: 1.60
Valence configuration for ps generation: 5s:5p:5d:6s: Total charge:  19.000000
Semicore shell(s): 5s 5p
Fallback to non-perturbative polarization scheme for Au
Please see the manual if this is not desired in principle
For Au, standard SIESTA heuristics set lmxkb to 3
 (one more than the basis l, including polarization orbitals).
Use PS.lmax or PS.KBprojectors blocks to override.

<basis_specs>
Au                   Z=  79    Mass=  196.97        Charge= 0.17977+309
Lmxo=2 Lmxkb= 3    BasisType=split      Semic=T
L=0  Nsemic=1  Cnfigmx=6
          i=1  nzeta=1  polorb=0  (5s)  (semicore shell)
            splnorm:   0.15000
               vcte:    40.000
               rinn:  -0.90000
               qcoe:    0.0000
               qyuk:    0.0000
               qwid:   0.10000E-01
                rcs:    0.0000
            lambdas:    1.0000
          i=2  nzeta=2  polorb=0  (6s)  (to be polarized non-perturbatively)
            splnorm:   0.15000
               vcte:    40.000
               rinn:  -0.90000
               qcoe:    0.0000
               qyuk:    0.0000
               qwid:   0.10000E-01
                rcs:    0.0000      0.0000
            lambdas:    1.0000      1.0000
L=1  Nsemic=1  Cnfigmx=6
          i=1  nzeta=1  polorb=0  (5p)  (semicore shell)
            splnorm:   0.15000
               vcte:    40.000
               rinn:  -0.90000
               qcoe:    0.0000
               qyuk:    0.0000
               qwid:   0.10000E-01
                rcs:    0.0000
            lambdas:    1.0000
          i=2  nzeta=1  polorb=0  (6p)  (non-perturbative polarization shell)
            splnorm:   0.15000
               vcte:    40.000
               rinn:  -0.90000
               qcoe:    0.0000
               qyuk:    0.0000
               qwid:   0.10000E-01
                rcs:    0.0000
            lambdas:    1.0000
L=2  Nsemic=0  Cnfigmx=5
          i=1  nzeta=2  polorb=0  (5d)
            splnorm:   0.15000
               vcte:    40.000
               rinn:  -0.90000
               qcoe:    0.0000
               qyuk:    0.0000
               qwid:   0.10000E-01
                rcs:    0.0000      0.0000
            lambdas:    1.0000      1.0000
L=0  Nkbl=2  erefs: 0.17977+309 0.17977+309
L=1  Nkbl=2  erefs: 0.17977+309 0.17977+309
L=2  Nkbl=1  erefs: 0.17977+309
L=3  Nkbl=1  erefs: 0.17977+309
</basis_specs>

Using PAO.SplitTailNorm
atom: Called for Au                    (Z =  79)
Maximum radius (at nrval) set to   50.00000 8518

read_vps: Pseudopotential generation method:
read_vps: ONCVPSP-3.Hamann's oncvpsp
Valence charge in pseudo generation:   19.00000

read_vps: Pseudopotential includes a core correction:
read_vps: Pseudo-core for xc-correction

xc_check: Exchange-correlation functional:
xc_check: GGA Perdew, Burke & Ernzerhof 1996
Got Vlocal (oncv-fit) from psml data
Choosing vlocal chloc cutoff:  5.037181
qtot up to nchloc:   18.99999407
atom: Maximum radius for chlocal:    5.03718
atom: Maximum radius for r*vlocal+2*Zval:    5.03718
Reading KB projs from Au psml data
Using scalar-relativistic projectors in PSML file

PSML: Kleinman-Bylander projectors:
   l= 0   rc=  1.474132   Ekb= 18.815768
   l= 0   rc=  1.474132   Ekb= -0.390506
   l= 1   rc=  1.583336   Ekb=  4.781134
   l= 1   rc=  1.583336   Ekb= -3.699696
   l= 2   rc=  1.583336   Ekb=  2.968821
   l= 2   rc=  1.583336   Ekb=  0.574456
   l= 3   rc=  1.622038   Ekb=  2.312314

PSML: Total number of  Kleinman-Bylander projectors:  25
atom: -------------------------------------------------------------------------

atom: SANKEY-TYPE ORBITALS:
atom: Selected multiple-zeta basis: split

SPLIT: Orbitals with angular momentum L= 0

SPLIT: Basis orbitals for state 5s

SPLIT: PAO cut-off radius determined from an
SPLIT: energy shift=  0.000735 Ry
Split based on tail norm

   izeta = 1
                 lambda =    1.000000
                     rc =    2.925359
                 energy =   -7.964134
                kinetic =    2.893592
    potential(screened) =  -10.857725
       potential(ionic) =  -37.457701

SPLIT: Basis orbitals for state 6s

[...]

   izeta = 2
                 rmatch =    4.927355
              splitnorm =    0.150000
                 energy =   -0.413505
                kinetic =    2.478661
    potential(screened) =   -2.892166
       potential(ionic) =  -20.911581

[...]

SPLIT: Basis orbitals for state 5p

[...]

SPLIT: Basis orbitals for state 6p
SPLIT: Non-perturbative polarization orbs for state 6s
SPLIT: rc(1st zeta) (re)set to: 8.0332 (expansion factor: 1.0000)
Split based on tail norm

[...]

SPLIT: Orbitals with angular momentum L= 2

SPLIT: Basis orbitals for state 5d

SPLIT: PAO cut-off radius determined from an
SPLIT: energy shift=  0.000735 Ry
Split based on tail norm

   izeta = 1
                 lambda =    1.000000
                     rc =    6.393405
                 energy =   -0.504592
                kinetic =    4.935315
    potential(screened) =   -5.439906
       potential(ionic) =  -26.571989

   izeta = 2
                 rmatch =    3.462344
              splitnorm =    0.150000
                 energy =   -0.397189
                kinetic =    6.101362
    potential(screened) =   -6.498551
       potential(ionic) =  -29.253309
atom: Total number of Sankey-type orbitals: 19

atm_pop: Valence configuration (for local Pseudopot. screening):
 5s( 2.00) 6s( 1.00)
 5p( 6.00) 6p( 0.00)
 5d(10.00)
Vna: chval, zval:   19.00000  19.00000

Vna:  Cut-off radius for the neutral-atom potential:   8.033223
comcore: Pseudo-core radius Rcore=  2.583037

atom: _________________________________________________________________________

prinput: Basis input

PAO.BasisType split

%block ChemicalSpeciesLabel
    1   79 Au                      # Species index, atomic number, species label
%endblock ChemicalSpeciesLabel

%block PAO.Basis                 # Define Basis set
# WARNING: This information might be incomplete!
Au                    5                    # Species label, number of l-shells
 n=5   0   1                         # n, l, Nzeta
   2.925
   1.000
 n=6   0   2                         # n, l, Nzeta
   8.033      4.927
   1.000      1.000
 n=5   1   1                         # n, l, Nzeta
   3.518
   1.000
 n=6   1   1                         # n, l, Nzeta
   8.033
   1.000
 n=5   2   2                         # n, l, Nzeta
   6.393      3.462
   1.000      1.000
%endblock PAO.Basis

prinput: ----------------------------------------------------------------------

Dumping basis to NetCDF file Au.ion.nc
coor:   Atomic-coordinates input format  =     Cartesian coordinates
coor:                                          (in Angstroms)

siesta: Atomic coordinates (Bohr) and species
siesta:      7.91147   7.21633   7.69874  1        1
siesta:     10.94329  11.12368   7.90883  1        2
siesta:     10.97755   7.66288  11.60182  1        3
siesta:      6.70530  10.58660  11.06782  1        4
siesta:      8.18915  15.14837   9.32920  1        5
siesta:     12.04421  18.88662   9.85413  1        6
siesta:     12.76948  14.17053  11.24737  1        7
siesta:      8.50781  18.51412  13.14048  1        8
siesta:      8.24901   8.84515  15.69941  1        9
siesta:     12.82642  10.88053  14.83569  1       10
siesta:     12.07512   9.42576  19.54451  1       11
siesta:      8.45649  12.60538  19.12427  1       12
siesta:      7.04569  13.98522  14.54800  1       13
siesta:     13.24730  17.67285  14.83006  1       14
siesta:     13.28451  14.29349  18.46493  1       15
siesta:      9.07282  17.34321  17.93630  1       16

siesta: System type = molecule

initatomlists: Number of atoms, orbitals, and projectors:     16   304   400

coxmol: Writing XMOL coordinates into file SurRel.xyz

siesta: ******************** Simulation parameters ****************************
siesta:
siesta: The following are some of the parameters of the simulation.
siesta: A complete list of the parameters used, including default values,
siesta: can be found in file out.fdf
siesta:
redata: Spin configuration                          = none
redata: Number of spin components                   = 1
redata: Time-Reversal Symmetry                      = T
redata: Spin spiral                                 = F
redata: Long output                                 =   F
redata: Number of Atomic Species                    =        1
redata: Charge density info will appear in .RHO file
redata: Write Mulliken charges (when)               = none
redata: Write Mulliken Pop.                         = NO
redata: Write Hirshfeld charges (when)              = none
redata: Write Voronoi charges (when)                = none
redata: Write spin charge (when)                    = none
redata: Matel table size (NRTAB)                    =     1024
redata: Mesh Cutoff                                 =   300.0000 Ry
redata: Net charge of the system                    =     0.0000 |e|
redata: Min. number of SCF Iter                     =        0
redata: Max. number of SCF Iter                     =     1000
redata: SCF convergence failure will abort job
redata: SCF mix quantity                            = Hamiltonian
redata: Mix DM or H after convergence               =   F
redata: Recompute H after scf cycle                 =   F
redata: Mix DM in first SCF step                    =   T
redata: Write Pulay info on disk                    =   F
redata: New DM Occupancy tolerance                  = 0.000000000001
redata: No kicks to SCF
redata: DM Mixing Weight for Kicks                  =     0.5000
redata: Require Harris convergence for SCF          =   F
redata: Harris energy tolerance for SCF             =     0.000100 eV
redata: Require DM convergence for SCF              =   T
redata: DM tolerance for SCF                        =     0.000100
redata: Require EDM convergence for SCF             =   F
redata: EDM tolerance for SCF                       =     0.001000 eV
redata: Require H convergence for SCF               =   T
[...]

DM_history_depth set to one: no extrapolation allowed by default for geometry relaxation
Size of DM history Fstack: 1
Total number of electrons:   304.000000
Total ionic charge:   304.000000

siesta: k-grid: Number of k-points = 1
siesta: k-point is Gamma-only

diag: Algorithm                                     = D&C
diag: Used triangular part                          = Lower
diag: Absolute tolerance                            =  0.100E-15
diag: Orthogonalization factor                      =  0.100E-05

ts: **************************************************************
ts: Save H and S matrices                           =    F
ts: Save DM and EDM matrices                        =    F
ts: Only save the overlap matrix S                  =    F
ts: **************************************************************

************************ Begin: TS CHECKS AND WARNINGS ************************
************************ End: TS CHECKS AND WARNINGS **************************

                        Begin CG opt. move =      0

outcell: Unit cell vectors (Ang):
       40.000000    0.000000    0.000000
        0.000000   40.000000    0.000000
        0.000000    0.000000   40.000000

outcell: Cell vector modules (Ang)   :   40.000000   40.000000   40.000000
outcell: Cell angles (23,13,12) (deg):     90.0000     90.0000     90.0000
outcell: Cell volume (Ang**3)        :  64000.0000
<dSpData1D:S at geom step 0
  <sparsity:sparsity for geom step 0
    nrows_g=304 nrows=304 sparsity=.8401 nnzs=77640, refcount: 7>
  <dData1D:(new from dSpData1D) n=77640, refcount: 1>
refcount: 1>
new_DM -- step:     1
Initializing Density Matrix...

Attempting to read DM from file... Failed...
DM filled with atomic data:
<dSpData2D:DM initialized from atoms
  <sparsity:sparsity for geom step 0
    nrows_g=304 nrows=304 sparsity=.8401 nnzs=77640, refcount: 8>
  <dData2D:DM n=77640 m=1, refcount: 1>
refcount: 1>
No. of atoms with KB's overlaping orbs in proc 0. Max # of overlaps:      16     175

InitMesh: MESH = 432 x 432 x 432 = 80621568
InitMesh: Mesh cutoff (required, used) =   300.000   322.366 Ry
New grid distribution [1]: sub = 2

stepf: Fermi-Dirac step function

siesta: Program's energy decomposition (eV):
siesta: Ebs     =    -12985.892499
siesta: Eions   =     81244.997452
siesta: Ena     =      8165.035134
siesta: Ekin    =     17895.706143
siesta: Enl     =      1083.898353
siesta: Eso     =         0.000000
siesta: Edftu   =         0.000000
siesta: DEna    =       774.373995
siesta: DUscf   =        46.230508
siesta: DUext   =         0.000000
siesta: Ex      =    -10546.021789
siesta: Ec      =      -646.369908
siesta: Exc     =    -11192.391696
siesta: EbV     =         0.000000
siesta: eta*DQ  =         0.000000
siesta: Emadel  =         0.000000
siesta: Emeta   =         0.000000
siesta: Emolmec =         0.000000
siesta: Ekinion =         0.000000
siesta: Eharris =    -64367.551628
siesta: Etot    =    -64472.145014
siesta: FreeEng =    -64472.171053

SCF Convergence by DM+H criterion
max |DM_out - DM_in|         :     0.0000912236
max |H_out - H_in|      (eV) :     0.0009584141
SCF cycle converged after 25 iterations

Using DM_out to compute the final energy and forces
No. of atoms with KB's overlaping orbs in proc 0. Max # of overlaps:      16     175

siesta: E_KS(eV) =           -64498.6403

siesta: E_KS - E_eggbox =    -64498.6403

siesta: Atomic forces (eV/Ang):
   Tot    0.000511    0.001261   -0.000259
   Max    1.730873
   Res    1.067243    sqrt( Sum f_i^2 / 3N )
   Max    1.730873    constrained

Stress tensor Voigt[x,y,z,yz,xz,xy] (kbar):       -0.54       -0.73       -0.74       -0.01       -0.02       -0.03
(Free)E + p*V (eV/cell)   -64471.8338
Target enthalpy (eV/cell)   -64498.6908

[...]

outcell: Cell vector modules (Ang)   :   40.000000   40.000000   40.000000
outcell: Cell angles (23,13,12) (deg):     90.0000     90.0000     90.0000
outcell: Cell volume (Ang**3)        :  64000.0000
<dSpData1D:S at geom step 1
  <sparsity:sparsity for geom step 1
    nrows_g=304 nrows=304 sparsity=.8237 nnzs=76126, refcount: 7>
  <dData1D:(new from dSpData1D) n=76126, refcount: 1>
refcount: 1>
new_DM -- step:     2
Re-using DM from previous geometries...
Number of DMs in history: 1
 DM extrapolation coefficients:
1   1.00000
New DM after history re-use:
<dSpData2D:SpM extrapolated using coords
  <sparsity:sparsity for geom step 1
    nrows_g=304 nrows=304 sparsity=.8237 nnzs=76126, refcount: 9>
  <dData2D:(temp array for extrapolation) n=76126 m=1, refcount: 1>
refcount: 1>
No. of atoms with KB's overlaping orbs in proc 0. Max # of overlaps:      16     170

[...]

        iscf     Eharris(eV)        E_KS(eV)     FreeEng(eV)     dDmax    Ef(eV) dHmax(eV)
   scf:    1   -64501.163301   -64499.267669   -64499.315472  0.131194 -5.147771  0.724173
   scf:    2   -64497.409151   -64498.710886   -64498.769208  0.132782 -5.380669  2.809576
   scf:    3   -64499.407715   -64499.309630   -64499.357052  0.106735 -5.202749  0.161036
   scf:    4   -64499.291446   -64499.305168   -64499.356994  0.019902 -5.202469  0.174476
   scf:    5   -64499.312438   -64499.310021   -64499.359682  0.010747 -5.202388  0.005313
   scf:    6   -64499.309952   -64499.309987   -64499.359694  0.000352 -5.201766  0.003880
   scf:    7   -64499.310051   -64499.310020   -64499.359700  0.000368 -5.200875  0.003453
   scf:    8   -64499.309899   -64499.309960   -64499.359701  0.000312 -5.200284  0.003034
   scf:    9   -64499.310070   -64499.310016   -64499.359702  0.000207 -5.200229  0.001983
   scf:   10   -64499.309978   -64499.309997   -64499.359702  0.000076 -5.200070  0.000874

[...]

cgvc: Finished line minimization    1.  Mean atomic displacement =    0.1293

[...]

cgvc: Finished line minimization    5.  Mean atomic displacement =    0.0387

[...]

                        Begin CG opt. move =     15

outcell: Unit cell vectors (Ang):
       40.000000    0.000000    0.000000
        0.000000   40.000000    0.000000
        0.000000    0.000000   40.000000

outcell: Cell vector modules (Ang)   :   40.000000   40.000000   40.000000
outcell: Cell angles (23,13,12) (deg):     90.0000     90.0000     90.0000
outcell: Cell volume (Ang**3)        :  64000.0000
<dSpData1D:S at geom step 15
  <sparsity:sparsity for geom step 15
    nrows_g=304 nrows=304 sparsity=.7399 nnzs=68380, refcount: 7>
  <dData1D:(new from dSpData1D) n=68380, refcount: 1>
refcount: 1>
new_DM -- step:    16
Re-using DM from previous geometries...
Number of DMs in history: 1
 DM extrapolation coefficients:
1   1.00000
New DM after history re-use:
<dSpData2D:SpM extrapolated using coords
  <sparsity:sparsity for geom step 15
    nrows_g=304 nrows=304 sparsity=.7399 nnzs=68380, refcount: 9>
  <dData2D:(temp array for extrapolation) n=68380 m=1, refcount: 1>
refcount: 1>
No. of atoms with KB's overlaping orbs in proc 0. Max # of overlaps:      16     137

InitMesh: MESH = 432 x 432 x 432 = 80621568
InitMesh: Mesh cutoff (required, used) =   300.000   322.366 Ry
New grid distribution [1]: sub = 2

        iscf     Eharris(eV)        E_KS(eV)     FreeEng(eV)     dDmax    Ef(eV) dHmax(eV)
   scf:    1   -64500.247232   -64500.496494   -64500.517790  0.079596 -5.227302  0.251770
   scf:    2   -64499.982197   -64500.326548   -64500.377884  0.085319 -5.199128  1.373604
   scf:    3   -64500.540947   -64500.498647   -64500.524124  0.073947 -5.221126  0.051558
   scf:    4   -64500.496034   -64500.497603   -64500.524368  0.005544 -5.221211  0.038071
   scf:    5   -64500.497537   -64500.497637   -64500.524487  0.002874 -5.221002  0.009685
   scf:    6   -64500.497527   -64500.497587   -64500.524508  0.000670 -5.220981  0.003653
   scf:    7   -64500.497339   -64500.497464   -64500.524515  0.000330 -5.220951  0.002764
   scf:    8   -64500.497406   -64500.497435   -64500.524517  0.000123 -5.220923  0.001659
   scf:    9   -64500.497333   -64500.497384   -64500.524519  0.000100 -5.220891  0.001090
   scf:   10   -64500.497361   -64500.497373   -64500.524519  0.000060 -5.220866  0.000766

SCF Convergence by DM+H criterion
max |DM_out - DM_in|         :     0.0000599066
max |H_out - H_in|      (eV) :     0.0007662403
SCF cycle converged after 10 iterations

Using DM_out to compute the final energy and forces
No. of atoms with KB's overlaping orbs in proc 0. Max # of overlaps:      16     137

siesta: E_KS(eV) =           -64500.4974

siesta: Atomic forces (eV/Ang):
   Tot   -0.001940   -0.001124    0.000656
   Max    0.254601
   Res    0.103120    sqrt( Sum f_i^2 / 3N )
   Max    0.254601    constrained

Stress tensor Voigt[x,y,z,yz,xz,xy] (kbar):       -0.03        0.01       -0.04       -0.01        0.01        0.01
(Free)E + p*V (eV/cell)   -64499.7229
Target enthalpy (eV/cell)   -64500.5245

outcoor: Final (unrelaxed) atomic coordinates (Ang):
    4.13208533    3.61948359    3.93294702   1       1  Au
    5.80504189    5.84618431    3.92488011   1       2  Au
    5.85915042    4.03750462    6.05966761   1       3  Au
    3.43802554    5.53263419    5.76388365   1       4  Au
    4.32093479    8.04956031    4.98797192   1       5  Au
    6.37908228   10.12969625    5.11694623   1       6  Au
    6.88098480    7.44614158    5.80137981   1       7  Au
    4.47917751   10.03617498    6.98276194   1       8  Au
    4.37673275    4.66068161    8.36528117   1       9  Au
    6.85551171    5.75200546    7.89341435   1      10  Au
    6.38352544    4.90973171   10.54104250   1      11  Au
    4.38880727    6.68600258   10.34524945   1      12  Au
    3.70791925    7.39389742    7.69288762   1      13  Au
    7.06221733    9.31719054    7.83537308   1      14  Au
    7.14738222    7.57431960    9.88676447   1      15  Au
    4.66894813    9.26958561    9.61083583   1      16  Au

coxmol: Writing XMOL coordinates into file SurRel.xyz

siesta: Program's energy decomposition (eV):
siesta: Ebs     =    -10813.277334
siesta: Eions   =     81244.997452
siesta: Ena     =      8180.560075
siesta: Ekin    =     18516.451984
siesta: Enl     =      1094.841406
siesta: Eso     =         0.000000
siesta: Edftu   =         0.000000
siesta: DEna    =       267.591705
siesta: DUscf   =         6.272194
siesta: DUext   =         0.000000
siesta: Ex      =    -10674.237135
siesta: Ec      =      -646.980151
siesta: Exc     =    -11321.217285
siesta: EbV     =         0.000000
siesta: eta*DQ  =         0.000000
siesta: Emadel  =         0.000000
siesta: Emeta   =         0.000000
siesta: Emolmec =         0.000000
siesta: Ekinion =         0.000000
siesta: Eharris =    -64500.497361
siesta: Etot    =    -64500.497373
siesta: FreeEng =    -64500.524519

siesta: Final energy (eV):
siesta:  Band Struct. =  -10813.277334
siesta:       Kinetic =   18516.451984
siesta:       Hartree =  160031.797403
siesta:         Edftu =       0.000000
siesta:       Eso     =       0.000000
siesta:    Ext. field =       0.000000
siesta:         Exch. =  -10674.237135
siesta:         Corr. =    -646.980151
siesta:     Bulk bias =       0.000000
siesta:   Exch.-corr. =  -11321.217285
siesta:  Ion-electron = -341283.718453
siesta:       Ion-ion =  109556.188979
siesta:       Ekinion =       0.000000
siesta: D3 dispersion =       0.000000
siesta:         Total =  -64500.497373
siesta:         Fermi =      -5.220866

siesta: Atomic forces (eV/Ang):
siesta:      1    0.022858    0.011642    0.012700
siesta:      2   -0.057878   -0.010352   -0.082647
siesta:      3    0.036272    0.066346   -0.058016
siesta:      4   -0.026503    0.057288   -0.015636
siesta:      5   -0.167284   -0.041743   -0.169310
siesta:      6    0.088877    0.001715   -0.137606
siesta:      7    0.254601   -0.221510   -0.026307
siesta:      8   -0.137205    0.063437    0.200297
siesta:      9   -0.124117   -0.175530    0.004877
siesta:     10    0.185327    0.169897   -0.066995
siesta:     11    0.059314   -0.046715    0.042431
siesta:     12   -0.110801    0.128454    0.020875
siesta:     13    0.035653    0.104438    0.126801
siesta:     14   -0.061033   -0.133314    0.066656
siesta:     15   -0.004882    0.072710    0.101829
siesta:     16    0.004862   -0.047885   -0.019293
siesta: ----------------------------------------
siesta:    Tot   -0.001940   -0.001124    0.000656

siesta: Stress tensor (static) (eV/Ang**3):
siesta:    -0.000019    0.000007    0.000003
siesta:     0.000007    0.000005   -0.000007
siesta:     0.000003   -0.000007   -0.000023

siesta: Cell volume =      64000.000000 Ang**3

siesta: Pressure (static):
siesta:                Solid            Molecule  Units
siesta:           0.00000014          0.00000000  Ry/Bohr**3
siesta:           0.00001252          0.00000044  eV/Ang**3
siesta:           0.02006694          0.00071065  kBar
(Free)E+ p_basis*V_orbitals  =      -64481.582879
(Free)Eharris+ p_basis*V_orbitals  =      -64481.582868

siesta: Electric dipole (a.u.)  =    0.066254    0.054882    0.092024
siesta: Electric dipole (Debye) =    0.168401    0.139496    0.233901

cite: Please indicate the Siesta version in published work: 5.2.2
cite: This calculation has made use of features in the following articles
cite: which we encourage you to cite in published work.
cite: (Please see "SurRel.bib" for a BibTeX file.)
        Primary SIESTA paper
          DOI: www.doi.org/10.1088/0953-8984/14/11/302
        PSML pseudopotential format
          DOI: www.doi.org/10.1016/j.cpc.2018.02.011

Routine            Calls   Time/call    Tot.time        %
siesta                 1    6559.103    6559.103   100.00
Setup                  1       0.884       0.884     0.01
bands                  1       0.000       0.000     0.00
KSV_init               1       0.000       0.000     0.00
IterGeom              16     409.885    6558.166    99.99
geom_init             16      40.838     653.408     9.96
state_init            16       0.045       0.714     0.01
hsparse               16       0.003       0.042     0.00
overlap               16       0.039       0.627     0.01
Setup_H0              16      19.933     318.921     4.86
naefs                 32       0.000       0.004     0.00
dnaefs                32       0.000       0.003     0.00
MolMec                32       0.000       0.000     0.00
kinefsm               32       0.031       0.982     0.01
nlefsm                32       0.100       3.187     0.05
DHSCF_Init            16      19.778     316.455     4.82
DHSCF1                16       0.325       5.197     0.08
InitMesh              16       0.325       5.195     0.08
INITMESH              16       0.000       0.000     0.00
DHSCF2                16      19.454     311.258     4.75
REMESH                16       0.329       5.260     0.08
REORD                696       0.294     204.846     3.12
PHION                 16       4.334      69.350     1.06
COMM_BSC             960       0.200     192.464     2.93
POISON               244      12.471    3042.984    46.39
fft                  488       5.219    2547.095    38.83
setup_H              212      20.973    4446.318    67.79
DHSCF                228      21.415    4882.533    74.44
DHSCF3               228      20.789    4739.944    72.27
rhoofd               228       1.162     265.022     4.04
XC                   228       2.822     643.448     9.81
GXC-CellXC           228       1.943     442.969     6.75
gridxc@cellXC        228       1.943     442.963     6.75
vmat                 228       0.665     151.675     2.31
IterSCF              196      27.699    5428.975    82.77
compute_dm           196       6.713    1315.817    20.06
diagon               196       6.711    1315.408    20.05
r-eigvec             196       6.202    1215.663    18.53
r-buildHS            196       0.000       0.064     0.00
rdiag                196       6.202    1215.587    18.53
rdiag1               196       0.001       0.205     0.00
rdiag2               196       1.836     359.925     5.49
rdiag3               196       4.341     850.886    12.97
rdiag4               196       0.023       4.523     0.07
r-buildD             196       0.506      99.201     1.51
MIXER                180       0.001       0.119     0.00
PostSCF               16      29.735     475.758     7.25
FINAL_HF              16      29.735     475.757     7.25
DHSCF4                16       8.912     142.586     2.17
dfscf                 16       4.185      66.965     1.02
overfsm               16       0.023       0.362     0.01
writeHSX              16       0.002       0.026     0.00
state_analysis        16       0.000       0.004     0.00
siesta_move           16       0.001       0.013     0.00
Analysis               1       0.002       0.002     0.00
optical                1       0.000       0.000     0.00

>> End of run:  30-JUN-2025  19:28:12
Job completed
Job completed